c FILE: n200d20/random-n200-d20-9.col

p edge 200 3980
e 1 4
e 1 7
e 1 11
e 1 13
e 1 14
e 1 23
e 1 29
e 1 31
e 1 33
e 1 49
e 1 50
e 1 62
e 1 66
e 1 70
e 1 73
e 1 76
e 1 80
e 1 81
e 1 92
e 1 94
e 1 105
e 1 114
e 1 115
e 1 135
e 1 148
e 1 153
e 1 154
e 1 159
e 1 160
e 1 164
e 1 171
e 1 179
e 1 180
e 1 182
e 1 184
e 1 188
e 1 190
e 1 197
e 1 200
e 2 8
e 2 16
e 2 19
e 2 21
e 2 24
e 2 25
e 2 35
e 2 41
e 2 47
e 2 54
e 2 61
e 2 64
e 2 65
e 2 66
e 2 68
e 2 75
e 2 78
e 2 81
e 2 82
e 2 84
e 2 89
e 2 92
e 2 94
e 2 97
e 2 101
e 2 105
e 2 109
e 2 118
e 2 121
e 2 126
e 2 139
e 2 158
e 2 162
e 2 168
e 2 170
e 2 171
e 2 174
e 2 177
e 2 182
e 2 183
e 2 187
e 2 190
e 2 194
e 2 196
e 3 5
e 3 7
e 3 9
e 3 11
e 3 12
e 3 29
e 3 30
e 3 37
e 3 38
e 3 39
e 3 43
e 3 48
e 3 52
e 3 53
e 3 57
e 3 63
e 3 67
e 3 71
e 3 73
e 3 74
e 3 83
e 3 87
e 3 91
e 3 95
e 3 110
e 3 112
e 3 118
e 3 121
e 3 125
e 3 128
e 3 135
e 3 139
e 3 140
e 3 156
e 3 164
e 3 165
e 3 171
e 3 180
e 3 184
e 3 188
e 3 192
e 3 196
e 3 198
e 4 9
e 4 11
e 4 12
e 4 15
e 4 20
e 4 22
e 4 25
e 4 27
e 4 37
e 4 39
e 4 45
e 4 71
e 4 72
e 4 73
e 4 78
e 4 83
e 4 84
e 4 91
e 4 102
e 4 118
e 4 122
e 4 124
e 4 126
e 4 127
e 4 134
e 4 138
e 4 139
e 4 142
e 4 144
e 4 146
e 4 161
e 4 169
e 4 170
e 4 174
e 4 175
e 4 178
e 4 179
e 4 183
e 4 194
e 4 195
e 4 196
e 4 198
e 4 199
e 4 200
e 5 9
e 5 11
e 5 19
e 5 20
e 5 26
e 5 29
e 5 35
e 5 42
e 5 51
e 5 58
e 5 67
e 5 71
e 5 77
e 5 87
e 5 89
e 5 92
e 5 94
e 5 96
e 5 99
e 5 100
e 5 114
e 5 120
e 5 123
e 5 128
e 5 135
e 5 143
e 5 144
e 5 146
e 5 150
e 5 151
e 5 157
e 5 158
e 5 162
e 5 163
e 5 175
e 5 187
e 6 9
e 6 10
e 6 16
e 6 26
e 6 38
e 6 42
e 6 44
e 6 49
e 6 55
e 6 62
e 6 65
e 6 68
e 6 70
e 6 72
e 6 75
e 6 80
e 6 81
e 6 84
e 6 87
e 6 90
e 6 97
e 6 102
e 6 105
e 6 106
e 6 107
e 6 114
e 6 119
e 6 122
e 6 123
e 6 125
e 6 130
e 6 143
e 6 147
e 6 148
e 6 153
e 6 160
e 6 170
e 6 171
e 6 174
e 6 177
e 6 180
e 6 185
e 6 187
e 6 190
e 6 194
e 7 15
e 7 17
e 7 26
e 7 27
e 7 31
e 7 49
e 7 50
e 7 59
e 7 65
e 7 66
e 7 72
e 7 78
e 7 87
e 7 88
e 7 89
e 7 92
e 7 93
e 7 97
e 7 98
e 7 112
e 7 114
e 7 115
e 7 116
e 7 129
e 7 131
e 7 136
e 7 141
e 7 152
e 7 162
e 7 164
e 7 167
e 7 168
e 7 175
e 7 176
e 7 178
e 7 192
e 7 195
e 7 197
e 7 198
e 8 13
e 8 19
e 8 28
e 8 33
e 8 35
e 8 42
e 8 43
e 8 44
e 8 46
e 8 52
e 8 59
e 8 64
e 8 66
e 8 68
e 8 69
e 8 70
e 8 73
e 8 76
e 8 78
e 8 83
e 8 87
e 8 96
e 8 106
e 8 108
e 8 111
e 8 118
e 8 129
e 8 132
e 8 145
e 8 149
e 8 151
e 8 152
e 8 153
e 8 157
e 8 158
e 8 166
e 8 167
e 8 171
e 8 172
e 8 175
e 8 177
e 8 181
e 8 188
e 8 195
e 8 198
e 9 17
e 9 18
e 9 19
e 9 29
e 9 32
e 9 40
e 9 53
e 9 55
e 9 57
e 9 58
e 9 61
e 9 64
e 9 66
e 9 67
e 9 72
e 9 76
e 9 85
e 9 89
e 9 94
e 9 96
e 9 97
e 9 107
e 9 119
e 9 121
e 9 123
e 9 127
e 9 136
e 9 137
e 9 150
e 9 153
e 9 154
e 9 159
e 9 162
e 9 168
e 9 173
e 9 175
e 9 177
e 9 179
e 9 182
e 9 185
e 9 191
e 9 195
e 9 196
e 9 198
e 9 199
e 10 14
e 10 18
e 10 39
e 10 47
e 10 48
e 10 53
e 10 57
e 10 66
e 10 75
e 10 76
e 10 84
e 10 87
e 10 97
e 10 103
e 10 106
e 10 108
e 10 112
e 10 113
e 10 114
e 10 115
e 10 117
e 10 120
e 10 121
e 10 125
e 10 149
e 10 152
e 10 153
e 10 156
e 10 157
e 10 182
e 10 192
e 10 195
e 10 197
e 11 16
e 11 21
e 11 23
e 11 25
e 11 30
e 11 42
e 11 48
e 11 57
e 11 58
e 11 60
e 11 67
e 11 71
e 11 75
e 11 76
e 11 77
e 11 78
e 11 79
e 11 87
e 11 89
e 11 91
e 11 100
e 11 109
e 11 110
e 11 115
e 11 117
e 11 124
e 11 130
e 11 138
e 11 144
e 11 156
e 11 158
e 11 172
e 11 173
e 11 176
e 11 179
e 11 184
e 11 185
e 11 190
e 11 195
e 11 199
e 11 200
e 12 14
e 12 17
e 12 18
e 12 21
e 12 25
e 12 26
e 12 29
e 12 41
e 12 46
e 12 49
e 12 50
e 12 51
e 12 52
e 12 53
e 12 56
e 12 60
e 12 62
e 12 65
e 12 69
e 12 77
e 12 79
e 12 81
e 12 85
e 12 90
e 12 92
e 12 94
e 12 95
e 12 97
e 12 99
e 12 137
e 12 138
e 12 139
e 12 145
e 12 153
e 12 155
e 12 156
e 12 157
e 12 163
e 12 167
e 12 175
e 12 180
e 12 182
e 12 186
e 12 192
e 12 195
e 13 17
e 13 18
e 13 30
e 13 45
e 13 46
e 13 62
e 13 67
e 13 73
e 13 77
e 13 98
e 13 103
e 13 116
e 13 123
e 13 126
e 13 146
e 13 149
e 13 152
e 13 154
e 13 157
e 13 159
e 13 165
e 13 167
e 13 169
e 13 182
e 13 186
e 13 191
e 13 192
e 13 194
e 14 19
e 14 24
e 14 28
e 14 35
e 14 39
e 14 44
e 14 50
e 14 51
e 14 62
e 14 63
e 14 70
e 14 75
e 14 85
e 14 87
e 14 95
e 14 97
e 14 100
e 14 102
e 14 108
e 14 112
e 14 114
e 14 116
e 14 118
e 14 127
e 14 130
e 14 132
e 14 136
e 14 146
e 14 151
e 14 152
e 14 156
e 14 161
e 14 170
e 14 184
e 14 195
e 14 198
e 15 17
e 15 40
e 15 43
e 15 44
e 15 46
e 15 53
e 15 63
e 15 71
e 15 76
e 15 77
e 15 84
e 15 91
e 15 93
e 15 95
e 15 96
e 15 98
e 15 99
e 15 101
e 15 108
e 15 115
e 15 122
e 15 133
e 15 134
e 15 135
e 15 142
e 15 143
e 15 147
e 15 154
e 15 159
e 15 170
e 15 174
e 15 180
e 15 183
e 15 193
e 15 194
e 15 195
e 15 196
e 16 18
e 16 22
e 16 24
e 16 27
e 16 51
e 16 55
e 16 57
e 16 63
e 16 73
e 16 79
e 16 82
e 16 86
e 16 88
e 16 92
e 16 109
e 16 110
e 16 119
e 16 121
e 16 124
e 16 129
e 16 130
e 16 134
e 16 139
e 16 141
e 16 142
e 16 143
e 16 145
e 16 153
e 16 154
e 16 163
e 16 181
e 16 182
e 16 197
e 16 200
e 17 21
e 17 22
e 17 26
e 17 32
e 17 34
e 17 40
e 17 52
e 17 59
e 17 60
e 17 64
e 17 77
e 17 78
e 17 80
e 17 81
e 17 91
e 17 107
e 17 109
e 17 119
e 17 122
e 17 127
e 17 131
e 17 135
e 17 137
e 17 142
e 17 157
e 17 159
e 17 165
e 17 167
e 17 178
e 17 180
e 17 194
e 18 19
e 18 20
e 18 29
e 18 30
e 18 34
e 18 35
e 18 39
e 18 41
e 18 46
e 18 56
e 18 58
e 18 62
e 18 69
e 18 70
e 18 72
e 18 75
e 18 77
e 18 84
e 18 87
e 18 88
e 18 92
e 18 93
e 18 101
e 18 105
e 18 109
e 18 117
e 18 122
e 18 125
e 18 132
e 18 136
e 18 137
e 18 138
e 18 140
e 18 141
e 18 148
e 18 155
e 18 161
e 18 168
e 18 172
e 18 179
e 18 188
e 18 192
e 19 22
e 19 26
e 19 29
e 19 36
e 19 53
e 19 56
e 19 79
e 19 82
e 19 89
e 19 94
e 19 117
e 19 119
e 19 135
e 19 137
e 19 139
e 19 143
e 19 145
e 19 146
e 19 150
e 19 151
e 19 152
e 19 154
e 19 158
e 19 170
e 19 175
e 19 176
e 19 177
e 19 178
e 19 181
e 19 186
e 19 189
e 19 195
e 20 27
e 20 29
e 20 33
e 20 40
e 20 45
e 20 60
e 20 62
e 20 68
e 20 77
e 20 78
e 20 82
e 20 84
e 20 85
e 20 89
e 20 97
e 20 98
e 20 99
e 20 111
e 20 113
e 20 118
e 20 125
e 20 126
e 20 136
e 20 138
e 20 140
e 20 157
e 20 160
e 20 165
e 20 172
e 20 173
e 20 175
e 20 178
e 20 179
e 20 191
e 20 192
e 20 195
e 21 25
e 21 29
e 21 36
e 21 43
e 21 45
e 21 57
e 21 66
e 21 68
e 21 70
e 21 71
e 21 72
e 21 74
e 21 76
e 21 80
e 21 81
e 21 96
e 21 97
e 21 110
e 21 115
e 21 124
e 21 136
e 21 143
e 21 144
e 21 150
e 21 155
e 21 157
e 21 161
e 21 169
e 21 175
e 21 176
e 21 178
e 21 180
e 21 183
e 21 188
e 22 24
e 22 26
e 22 35
e 22 36
e 22 37
e 22 38
e 22 57
e 22 61
e 22 64
e 22 66
e 22 68
e 22 71
e 22 72
e 22 80
e 22 83
e 22 85
e 22 102
e 22 104
e 22 112
e 22 119
e 22 143
e 22 149
e 22 152
e 22 159
e 22 162
e 22 167
e 22 173
e 22 181
e 22 191
e 22 198
e 23 29
e 23 34
e 23 35
e 23 36
e 23 39
e 23 49
e 23 51
e 23 52
e 23 60
e 23 75
e 23 76
e 23 77
e 23 78
e 23 80
e 23 82
e 23 84
e 23 85
e 23 107
e 23 117
e 23 119
e 23 120
e 23 129
e 23 139
e 23 155
e 23 161
e 23 165
e 23 166
e 23 167
e 23 172
e 23 175
e 23 176
e 23 177
e 23 180
e 23 182
e 23 186
e 23 188
e 23 190
e 24 25
e 24 26
e 24 28
e 24 35
e 24 41
e 24 44
e 24 46
e 24 55
e 24 64
e 24 68
e 24 70
e 24 72
e 24 80
e 24 83
e 24 85
e 24 86
e 24 88
e 24 94
e 24 96
e 24 97
e 24 101
e 24 102
e 24 111
e 24 113
e 24 118
e 24 120
e 24 123
e 24 127
e 24 133
e 24 141
e 24 149
e 24 152
e 24 154
e 24 158
e 24 170
e 24 180
e 24 187
e 24 190
e 24 198
e 24 199
e 25 26
e 25 28
e 25 35
e 25 36
e 25 39
e 25 40
e 25 42
e 25 45
e 25 62
e 25 63
e 25 65
e 25 73
e 25 95
e 25 100
e 25 105
e 25 109
e 25 113
e 25 117
e 25 119
e 25 123
e 25 135
e 25 136
e 25 140
e 25 160
e 25 164
e 25 165
e 25 167
e 25 175
e 25 185
e 25 193
e 25 199
e 26 27
e 26 35
e 26 42
e 26 54
e 26 57
e 26 72
e 26 75
e 26 76
e 26 78
e 26 84
e 26 85
e 26 93
e 26 96
e 26 100
e 26 101
e 26 103
e 26 105
e 26 116
e 26 118
e 26 123
e 26 127
e 26 128
e 26 141
e 26 163
e 26 168
e 26 171
e 26 190
e 26 193
e 26 194
e 26 197
e 27 31
e 27 36
e 27 37
e 27 39
e 27 58
e 27 67
e 27 69
e 27 71
e 27 73
e 27 78
e 27 82
e 27 95
e 27 105
e 27 113
e 27 118
e 27 120
e 27 125
e 27 126
e 27 128
e 27 129
e 27 134
e 27 141
e 27 146
e 27 147
e 27 152
e 27 153
e 27 164
e 27 168
e 27 169
e 27 172
e 27 176
e 27 179
e 27 185
e 27 187
e 27 188
e 27 189
e 27 191
e 27 192
e 27 195
e 28 31
e 28 39
e 28 40
e 28 43
e 28 44
e 28 48
e 28 49
e 28 50
e 28 63
e 28 65
e 28 66
e 28 74
e 28 78
e 28 86
e 28 89
e 28 95
e 28 97
e 28 106
e 28 108
e 28 117
e 28 118
e 28 123
e 28 127
e 28 132
e 28 136
e 28 138
e 28 144
e 28 145
e 28 148
e 28 149
e 28 150
e 28 151
e 28 155
e 28 158
e 28 161
e 28 172
e 28 175
e 28 179
e 28 186
e 28 187
e 28 191
e 28 193
e 28 196
e 29 38
e 29 41
e 29 49
e 29 67
e 29 68
e 29 73
e 29 77
e 29 78
e 29 83
e 29 86
e 29 89
e 29 90
e 29 103
e 29 109
e 29 110
e 29 111
e 29 112
e 29 121
e 29 125
e 29 130
e 29 132
e 29 137
e 29 140
e 29 154
e 29 161
e 29 169
e 29 171
e 29 175
e 29 177
e 29 188
e 29 189
e 29 195
e 30 38
e 30 39
e 30 45
e 30 49
e 30 52
e 30 54
e 30 58
e 30 63
e 30 65
e 30 81
e 30 83
e 30 85
e 30 96
e 30 102
e 30 103
e 30 108
e 30 113
e 30 114
e 30 117
e 30 124
e 30 130
e 30 132
e 30 135
e 30 136
e 30 140
e 30 141
e 30 147
e 30 157
e 30 158
e 30 164
e 30 170
e 30 180
e 30 185
e 30 186
e 30 200
e 31 38
e 31 42
e 31 45
e 31 51
e 31 54
e 31 72
e 31 81
e 31 85
e 31 88
e 31 104
e 31 107
e 31 110
e 31 120
e 31 127
e 31 128
e 31 146
e 31 156
e 31 168
e 31 172
e 31 178
e 31 181
e 31 195
e 31 198
e 32 35
e 32 40
e 32 42
e 32 45
e 32 48
e 32 49
e 32 57
e 32 60
e 32 62
e 32 72
e 32 83
e 32 84
e 32 88
e 32 89
e 32 91
e 32 93
e 32 100
e 32 101
e 32 106
e 32 114
e 32 122
e 32 124
e 32 126
e 32 131
e 32 134
e 32 138
e 32 142
e 32 149
e 32 165
e 32 168
e 32 169
e 32 171
e 32 179
e 32 181
e 32 185
e 32 187
e 32 193
e 32 198
e 33 35
e 33 38
e 33 50
e 33 54
e 33 71
e 33 73
e 33 77
e 33 89
e 33 94
e 33 98
e 33 100
e 33 101
e 33 106
e 33 108
e 33 116
e 33 117
e 33 122
e 33 127
e 33 131
e 33 134
e 33 145
e 33 152
e 33 169
e 33 175
e 33 177
e 33 184
e 33 193
e 33 196
e 33 197
e 33 199
e 34 36
e 34 41
e 34 44
e 34 48
e 34 51
e 34 53
e 34 65
e 34 66
e 34 68
e 34 74
e 34 78
e 34 79
e 34 93
e 34 95
e 34 96
e 34 100
e 34 101
e 34 112
e 34 131
e 34 143
e 34 146
e 34 154
e 34 155
e 34 159
e 34 174
e 34 180
e 34 181
e 34 185
e 34 195
e 34 196
e 34 200
e 35 39
e 35 43
e 35 46
e 35 49
e 35 52
e 35 61
e 35 102
e 35 108
e 35 117
e 35 118
e 35 120
e 35 122
e 35 126
e 35 128
e 35 132
e 35 137
e 35 142
e 35 145
e 35 146
e 35 149
e 35 154
e 35 167
e 35 168
e 35 170
e 35 183
e 35 187
e 35 191
e 35 192
e 35 196
e 35 198
e 35 200
e 36 40
e 36 43
e 36 50
e 36 51
e 36 52
e 36 73
e 36 75
e 36 80
e 36 81
e 36 82
e 36 85
e 36 93
e 36 96
e 36 97
e 36 105
e 36 111
e 36 114
e 36 120
e 36 122
e 36 123
e 36 125
e 36 126
e 36 132
e 36 138
e 36 143
e 36 147
e 36 162
e 36 167
e 36 169
e 36 175
e 36 177
e 36 184
e 36 197
e 36 199
e 37 38
e 37 43
e 37 49
e 37 50
e 37 53
e 37 54
e 37 55
e 37 64
e 37 71
e 37 75
e 37 83
e 37 89
e 37 94
e 37 106
e 37 108
e 37 113
e 37 117
e 37 127
e 37 135
e 37 148
e 37 150
e 37 155
e 37 169
e 37 172
e 37 173
e 37 174
e 37 175
e 37 176
e 37 182
e 37 193
e 38 53
e 38 60
e 38 61
e 38 65
e 38 66
e 38 82
e 38 87
e 38 91
e 38 92
e 38 100
e 38 102
e 38 105
e 38 108
e 38 116
e 38 118
e 38 120
e 38 124
e 38 126
e 38 136
e 38 138
e 38 143
e 38 149
e 38 152
e 38 154
e 38 165
e 38 168
e 38 170
e 38 176
e 38 183
e 38 193
e 38 197
e 39 43
e 39 46
e 39 48
e 39 50
e 39 52
e 39 56
e 39 58
e 39 61
e 39 62
e 39 65
e 39 66
e 39 69
e 39 70
e 39 76
e 39 78
e 39 81
e 39 84
e 39 90
e 39 91
e 39 92
e 39 93
e 39 94
e 39 95
e 39 96
e 39 110
e 39 122
e 39 124
e 39 126
e 39 129
e 39 132
e 39 133
e 39 134
e 39 135
e 39 139
e 39 140
e 39 144
e 39 149
e 39 155
e 39 162
e 39 163
e 39 180
e 39 184
e 39 185
e 39 189
e 39 193
e 40 49
e 40 50
e 40 53
e 40 55
e 40 62
e 40 76
e 40 78
e 40 79
e 40 84
e 40 105
e 40 110
e 40 114
e 40 124
e 40 127
e 40 140
e 40 141
e 40 143
e 40 144
e 40 145
e 40 155
e 40 165
e 40 175
e 40 178
e 41 48
e 41 49
e 41 55
e 41 62
e 41 64
e 41 66
e 41 70
e 41 72
e 41 76
e 41 77
e 41 79
e 41 85
e 41 87
e 41 91
e 41 95
e 41 103
e 41 107
e 41 123
e 41 126
e 41 130
e 41 133
e 41 134
e 41 137
e 41 146
e 41 149
e 41 155
e 41 157
e 41 161
e 41 163
e 41 170
e 41 176
e 41 179
e 41 180
e 41 183
e 41 187
e 41 191
e 42 43
e 42 47
e 42 65
e 42 73
e 42 78
e 42 84
e 42 93
e 42 108
e 42 109
e 42 112
e 42 123
e 42 136
e 42 139
e 42 147
e 42 150
e 42 157
e 42 172
e 42 177
e 42 178
e 42 189
e 42 190
e 42 192
e 42 193
e 42 199
e 43 46
e 43 47
e 43 52
e 43 55
e 43 61
e 43 64
e 43 68
e 43 71
e 43 72
e 43 77
e 43 87
e 43 111
e 43 116
e 43 117
e 43 124
e 43 138
e 43 145
e 43 148
e 43 159
e 43 161
e 43 174
e 43 181
e 43 182
e 43 186
e 43 194
e 43 197
e 43 200
e 44 47
e 44 48
e 44 52
e 44 55
e 44 58
e 44 65
e 44 68
e 44 72
e 44 77
e 44 78
e 44 91
e 44 94
e 44 98
e 44 106
e 44 109
e 44 113
e 44 119
e 44 122
e 44 133
e 44 135
e 44 137
e 44 138
e 44 140
e 44 142
e 44 144
e 44 147
e 44 148
e 44 150
e 44 157
e 44 159
e 44 160
e 44 163
e 44 164
e 44 180
e 44 187
e 44 190
e 44 196
e 44 198
e 45 49
e 45 59
e 45 68
e 45 74
e 45 77
e 45 78
e 45 79
e 45 82
e 45 83
e 45 94
e 45 97
e 45 106
e 45 115
e 45 130
e 45 132
e 45 142
e 45 143
e 45 144
e 45 145
e 45 146
e 45 147
e 45 159
e 45 160
e 45 162
e 45 171
e 45 173
e 45 176
e 45 199
e 46 47
e 46 52
e 46 54
e 46 55
e 46 61
e 46 65
e 46 76
e 46 79
e 46 80
e 46 87
e 46 89
e 46 104
e 46 106
e 46 110
e 46 116
e 46 121
e 46 123
e 46 124
e 46 133
e 46 134
e 46 136
e 46 145
e 46 177
e 46 185
e 46 192
e 46 194
e 46 195
e 46 197
e 46 200
e 47 48
e 47 53
e 47 60
e 47 64
e 47 72
e 47 74
e 47 80
e 47 85
e 47 88
e 47 96
e 47 97
e 47 110
e 47 111
e 47 122
e 47 125
e 47 129
e 47 132
e 47 133
e 47 150
e 47 151
e 47 159
e 47 164
e 47 174
e 47 177
e 47 179
e 47 189
e 47 191
e 47 197
e 48 61
e 48 65
e 48 72
e 48 75
e 48 77
e 48 80
e 48 81
e 48 87
e 48 90
e 48 100
e 48 110
e 48 115
e 48 119
e 48 122
e 48 139
e 48 144
e 48 145
e 48 146
e 48 150
e 48 156
e 48 162
e 48 164
e 48 166
e 48 174
e 48 178
e 48 179
e 48 180
e 48 183
e 48 187
e 48 191
e 48 194
e 49 52
e 49 60
e 49 64
e 49 65
e 49 67
e 49 74
e 49 85
e 49 86
e 49 91
e 49 95
e 49 100
e 49 106
e 49 117
e 49 121
e 49 122
e 49 125
e 49 134
e 49 150
e 49 153
e 49 157
e 49 158
e 49 171
e 49 181
e 49 190
e 50 55
e 50 63
e 50 65
e 50 73
e 50 75
e 50 76
e 50 78
e 50 93
e 50 95
e 50 117
e 50 125
e 50 127
e 50 136
e 50 138
e 50 159
e 50 160
e 50 164
e 50 165
e 50 168
e 50 174
e 50 191
e 50 192
e 50 199
e 51 52
e 51 59
e 51 61
e 51 70
e 51 72
e 51 85
e 51 101
e 51 106
e 51 108
e 51 115
e 51 117
e 51 119
e 51 128
e 51 129
e 51 130
e 51 136
e 51 141
e 51 145
e 51 146
e 51 148
e 51 152
e 51 154
e 51 155
e 51 156
e 51 162
e 51 164
e 51 173
e 51 178
e 51 180
e 51 184
e 51 185
e 51 191
e 51 192
e 51 194
e 52 56
e 52 60
e 52 62
e 52 64
e 52 68
e 52 70
e 52 78
e 52 84
e 52 86
e 52 105
e 52 106
e 52 110
e 52 114
e 52 115
e 52 116
e 52 122
e 52 126
e 52 139
e 52 141
e 52 146
e 52 148
e 52 149
e 52 160
e 52 165
e 52 166
e 52 167
e 52 168
e 52 171
e 52 172
e 52 174
e 52 177
e 52 182
e 52 186
e 52 193
e 52 198
e 53 55
e 53 60
e 53 64
e 53 66
e 53 86
e 53 95
e 53 101
e 53 102
e 53 103
e 53 104
e 53 111
e 53 118
e 53 123
e 53 129
e 53 131
e 53 139
e 53 153
e 53 160
e 53 161
e 53 167
e 53 171
e 53 172
e 53 174
e 53 179
e 53 181
e 53 182
e 53 186
e 53 191
e 53 195
e 53 196
e 53 198
e 53 199
e 54 65
e 54 78
e 54 94
e 54 108
e 54 113
e 54 116
e 54 118
e 54 120
e 54 123
e 54 143
e 54 151
e 54 156
e 54 163
e 54 167
e 54 185
e 54 188
e 54 189
e 54 191
e 54 195
e 54 198
e 55 60
e 55 61
e 55 82
e 55 96
e 55 98
e 55 105
e 55 122
e 55 128
e 55 135
e 55 138
e 55 141
e 55 145
e 55 148
e 55 153
e 55 157
e 55 158
e 55 161
e 55 164
e 55 167
e 55 171
e 55 182
e 55 183
e 55 186
e 55 191
e 55 196
e 55 197
e 55 198
e 55 199
e 56 61
e 56 63
e 56 66
e 56 79
e 56 82
e 56 91
e 56 96
e 56 98
e 56 104
e 56 105
e 56 106
e 56 109
e 56 115
e 56 118
e 56 124
e 56 134
e 56 143
e 56 154
e 56 159
e 56 161
e 56 164
e 56 181
e 56 184
e 56 186
e 56 187
e 56 194
e 56 195
e 56 197
e 57 59
e 57 68
e 57 74
e 57 81
e 57 82
e 57 88
e 57 89
e 57 91
e 57 95
e 57 100
e 57 106
e 57 112
e 57 113
e 57 132
e 57 137
e 57 138
e 57 141
e 57 145
e 57 147
e 57 148
e 57 154
e 57 157
e 57 170
e 57 177
e 57 179
e 57 182
e 57 183
e 57 193
e 58 64
e 58 66
e 58 67
e 58 70
e 58 71
e 58 79
e 58 82
e 58 87
e 58 92
e 58 95
e 58 100
e 58 103
e 58 107
e 58 113
e 58 120
e 58 124
e 58 125
e 58 130
e 58 132
e 58 133
e 58 139
e 58 140
e 58 148
e 58 150
e 58 151
e 58 153
e 58 154
e 58 163
e 58 170
e 58 175
e 58 189
e 58 190
e 58 191
e 58 200
e 59 60
e 59 65
e 59 66
e 59 68
e 59 72
e 59 74
e 59 76
e 59 82
e 59 87
e 59 89
e 59 92
e 59 99
e 59 100
e 59 108
e 59 113
e 59 114
e 59 116
e 59 119
e 59 139
e 59 140
e 59 144
e 59 163
e 59 166
e 59 175
e 59 178
e 59 184
e 59 186
e 59 187
e 60 62
e 60 63
e 60 68
e 60 73
e 60 75
e 60 78
e 60 79
e 60 82
e 60 95
e 60 105
e 60 115
e 60 121
e 60 122
e 60 129
e 60 131
e 60 142
e 60 148
e 60 149
e 60 154
e 60 162
e 60 164
e 60 170
e 60 174
e 60 175
e 60 188
e 60 198
e 61 64
e 61 69
e 61 70
e 61 82
e 61 84
e 61 86
e 61 87
e 61 100
e 61 104
e 61 108
e 61 110
e 61 114
e 61 117
e 61 126
e 61 141
e 61 144
e 61 163
e 61 174
e 61 181
e 61 188
e 61 197
e 61 199
e 61 200
e 62 68
e 62 70
e 62 78
e 62 79
e 62 80
e 62 87
e 62 93
e 62 94
e 62 97
e 62 98
e 62 116
e 62 121
e 62 135
e 62 141
e 62 145
e 62 147
e 62 156
e 62 157
e 62 161
e 62 165
e 62 166
e 62 168
e 62 170
e 62 176
e 62 181
e 62 188
e 62 189
e 62 191
e 63 76
e 63 79
e 63 80
e 63 91
e 63 94
e 63 105
e 63 106
e 63 109
e 63 118
e 63 128
e 63 132
e 63 142
e 63 145
e 63 146
e 63 151
e 63 152
e 63 163
e 63 165
e 63 168
e 63 169
e 63 175
e 63 179
e 63 183
e 63 185
e 63 187
e 63 188
e 63 189
e 63 190
e 64 75
e 64 79
e 64 81
e 64 82
e 64 83
e 64 86
e 64 89
e 64 92
e 64 95
e 64 97
e 64 100
e 64 104
e 64 107
e 64 111
e 64 126
e 64 130
e 64 140
e 64 151
e 64 180
e 64 184
e 64 186
e 64 192
e 64 198
e 64 199
e 65 68
e 65 70
e 65 81
e 65 85
e 65 90
e 65 96
e 65 99
e 65 106
e 65 111
e 65 114
e 65 120
e 65 131
e 65 135
e 65 138
e 65 145
e 65 146
e 65 151
e 65 152
e 65 162
e 65 163
e 65 168
e 65 171
e 65 183
e 65 195
e 65 198
e 66 74
e 66 84
e 66 86
e 66 91
e 66 98
e 66 104
e 66 112
e 66 119
e 66 128
e 66 136
e 66 139
e 66 140
e 66 142
e 66 146
e 66 149
e 66 153
e 66 157
e 66 159
e 66 174
e 66 184
e 66 192
e 66 193
e 66 194
e 66 196
e 67 68
e 67 72
e 67 76
e 67 81
e 67 85
e 67 90
e 67 95
e 67 99
e 67 102
e 67 109
e 67 110
e 67 119
e 67 121
e 67 124
e 67 125
e 67 126
e 67 128
e 67 131
e 67 146
e 67 147
e 67 158
e 67 164
e 67 165
e 67 167
e 67 170
e 67 177
e 67 180
e 67 185
e 67 186
e 67 190
e 67 195
e 67 197
e 68 78
e 68 82
e 68 89
e 68 91
e 68 95
e 68 100
e 68 103
e 68 105
e 68 109
e 68 117
e 68 119
e 68 121
e 68 123
e 68 126
e 68 128
e 68 131
e 68 132
e 68 140
e 68 143
e 68 144
e 68 151
e 68 169
e 68 176
e 68 177
e 68 178
e 68 183
e 68 192
e 68 196
e 68 199
e 68 200
e 69 71
e 69 74
e 69 80
e 69 86
e 69 99
e 69 105
e 69 106
e 69 114
e 69 127
e 69 129
e 69 131
e 69 135
e 69 140
e 69 147
e 69 148
e 69 165
e 69 167
e 69 180
e 69 181
e 69 184
e 69 189
e 69 190
e 69 196
e 70 81
e 70 82
e 70 91
e 70 107
e 70 121
e 70 124
e 70 128
e 70 140
e 70 141
e 70 143
e 70 145
e 70 147
e 70 164
e 70 169
e 70 195
e 70 198
e 71 83
e 71 84
e 71 86
e 71 87
e 71 90
e 71 95
e 71 101
e 71 106
e 71 110
e 71 114
e 71 115
e 71 117
e 71 123
e 71 124
e 71 125
e 71 132
e 71 151
e 71 153
e 71 154
e 71 168
e 71 169
e 71 172
e 71 176
e 71 180
e 71 187
e 71 193
e 71 198
e 72 73
e 72 78
e 72 84
e 72 86
e 72 89
e 72 100
e 72 107
e 72 108
e 72 110
e 72 116
e 72 117
e 72 135
e 72 138
e 72 139
e 72 149
e 72 150
e 72 151
e 72 155
e 72 159
e 72 160
e 72 173
e 72 175
e 72 180
e 72 181
e 72 182
e 72 188
e 72 200
e 73 80
e 73 89
e 73 90
e 73 107
e 73 111
e 73 113
e 73 115
e 73 117
e 73 127
e 73 129
e 73 133
e 73 145
e 73 148
e 73 150
e 73 151
e 73 156
e 73 157
e 73 160
e 73 171
e 73 177
e 73 178
e 73 180
e 73 181
e 73 183
e 74 76
e 74 80
e 74 83
e 74 85
e 74 89
e 74 92
e 74 94
e 74 100
e 74 111
e 74 122
e 74 123
e 74 127
e 74 130
e 74 132
e 74 134
e 74 135
e 74 136
e 74 137
e 74 139
e 74 141
e 74 148
e 74 150
e 74 151
e 74 153
e 74 154
e 74 163
e 74 180
e 74 184
e 74 185
e 74 187
e 74 193
e 75 76
e 75 83
e 75 84
e 75 92
e 75 95
e 75 100
e 75 101
e 75 111
e 75 116
e 75 117
e 75 119
e 75 120
e 75 136
e 75 146
e 75 162
e 75 177
e 75 179
e 75 181
e 75 193
e 75 196
e 75 200
e 76 77
e 76 87
e 76 100
e 76 102
e 76 108
e 76 119
e 76 121
e 76 128
e 76 130
e 76 134
e 76 135
e 76 143
e 76 148
e 76 150
e 76 159
e 76 163
e 76 170
e 76 172
e 76 173
e 76 177
e 76 179
e 76 184
e 76 187
e 76 188
e 77 80
e 77 81
e 77 84
e 77 85
e 77 90
e 77 102
e 77 114
e 77 117
e 77 132
e 77 133
e 77 135
e 77 141
e 77 143
e 77 146
e 77 150
e 77 188
e 77 193
e 77 195
e 77 196
e 78 83
e 78 84
e 78 90
e 78 92
e 78 94
e 78 104
e 78 107
e 78 114
e 78 116
e 78 122
e 78 124
e 78 136
e 78 137
e 78 151
e 78 158
e 78 167
e 78 173
e 78 174
e 78 178
e 78 183
e 78 185
e 78 195
e 78 198
e 79 83
e 79 88
e 79 100
e 79 105
e 79 108
e 79 112
e 79 118
e 79 119
e 79 121
e 79 132
e 79 134
e 79 135
e 79 138
e 79 146
e 79 149
e 79 151
e 79 152
e 79 153
e 79 160
e 79 163
e 79 177
e 79 186
e 79 188
e 79 191
e 79 197
e 80 89
e 80 99
e 80 101
e 80 102
e 80 104
e 80 105
e 80 107
e 80 117
e 80 120
e 80 126
e 80 129
e 80 136
e 80 139
e 80 140
e 80 142
e 80 144
e 80 150
e 80 152
e 80 155
e 80 157
e 80 158
e 80 165
e 80 171
e 80 173
e 80 177
e 80 181
e 80 185
e 80 195
e 80 196
e 80 198
e 81 91
e 81 92
e 81 93
e 81 97
e 81 108
e 81 119
e 81 128
e 81 131
e 81 141
e 81 146
e 81 156
e 81 159
e 81 163
e 81 166
e 81 169
e 81 171
e 81 176
e 81 181
e 81 182
e 81 186
e 81 187
e 81 198
e 82 83
e 82 99
e 82 100
e 82 105
e 82 123
e 82 132
e 82 137
e 82 139
e 82 140
e 82 147
e 82 160
e 82 164
e 82 166
e 82 167
e 82 186
e 82 196
e 83 86
e 83 87
e 83 96
e 83 99
e 83 100
e 83 103
e 83 111
e 83 112
e 83 114
e 83 115
e 83 117
e 83 129
e 83 136
e 83 151
e 83 158
e 83 159
e 83 160
e 83 163
e 83 170
e 83 173
e 83 174
e 83 175
e 83 179
e 83 180
e 83 181
e 83 186
e 83 190
e 83 199
e 84 90
e 84 91
e 84 94
e 84 95
e 84 97
e 84 99
e 84 103
e 84 107
e 84 108
e 84 112
e 84 113
e 84 122
e 84 125
e 84 127
e 84 131
e 84 133
e 84 136
e 84 138
e 84 147
e 84 149
e 84 151
e 84 154
e 84 160
e 84 175
e 84 176
e 84 180
e 84 181
e 84 191
e 84 193
e 85 86
e 85 90
e 85 92
e 85 96
e 85 101
e 85 108
e 85 112
e 85 114
e 85 115
e 85 119
e 85 121
e 85 126
e 85 127
e 85 128
e 85 131
e 85 132
e 85 136
e 85 142
e 85 154
e 85 155
e 85 167
e 85 171
e 85 175
e 85 177
e 85 180
e 85 184
e 85 186
e 85 189
e 85 193
e 85 196
e 86 92
e 86 105
e 86 108
e 86 110
e 86 123
e 86 125
e 86 133
e 86 134
e 86 137
e 86 143
e 86 147
e 86 149
e 86 151
e 86 159
e 86 162
e 86 168
e 86 171
e 86 175
e 86 176
e 86 178
e 86 183
e 86 185
e 86 187
e 86 188
e 86 189
e 86 190
e 86 193
e 86 199
e 87 88
e 87 96
e 87 101
e 87 109
e 87 110
e 87 111
e 87 117
e 87 121
e 87 126
e 87 131
e 87 138
e 87 141
e 87 146
e 87 147
e 87 153
e 87 154
e 87 155
e 87 159
e 87 161
e 87 164
e 87 177
e 87 180
e 87 181
e 87 183
e 87 187
e 87 189
e 87 191
e 87 194
e 87 196
e 88 89
e 88 93
e 88 94
e 88 95
e 88 100
e 88 112
e 88 115
e 88 116
e 88 130
e 88 134
e 88 136
e 88 139
e 88 147
e 88 158
e 88 167
e 88 172
e 88 173
e 88 196
e 88 197
e 88 199
e 89 90
e 89 94
e 89 98
e 89 100
e 89 108
e 89 112
e 89 117
e 89 121
e 89 127
e 89 133
e 89 135
e 89 138
e 89 144
e 89 146
e 89 148
e 89 154
e 89 160
e 89 163
e 89 165
e 89 167
e 89 171
e 89 178
e 89 184
e 89 187
e 90 99
e 90 102
e 90 104
e 90 106
e 90 110
e 90 112
e 90 114
e 90 118
e 90 124
e 90 129
e 90 132
e 90 140
e 90 155
e 90 157
e 90 168
e 90 172
e 90 185
e 90 199
e 91 96
e 91 98
e 91 107
e 91 115
e 91 116
e 91 124
e 91 128
e 91 132
e 91 138
e 91 141
e 91 143
e 91 146
e 91 148
e 91 152
e 91 154
e 91 164
e 91 171
e 91 180
e 91 185
e 91 187
e 91 189
e 92 97
e 92 113
e 92 120
e 92 121
e 92 123
e 92 128
e 92 136
e 92 138
e 92 147
e 92 148
e 92 150
e 92 154
e 92 162
e 92 164
e 92 166
e 92 171
e 92 173
e 92 178
e 92 183
e 92 184
e 92 191
e 92 192
e 93 96
e 93 109
e 93 114
e 93 123
e 93 124
e 93 133
e 93 135
e 93 137
e 93 140
e 93 142
e 93 147
e 93 154
e 93 156
e 93 158
e 93 169
e 93 171
e 93 173
e 93 177
e 93 188
e 93 189
e 93 190
e 93 192
e 93 193
e 94 96
e 94 99
e 94 101
e 94 104
e 94 113
e 94 114
e 94 119
e 94 120
e 94 122
e 94 124
e 94 126
e 94 131
e 94 142
e 94 143
e 94 144
e 94 158
e 94 162
e 94 165
e 94 166
e 94 169
e 94 171
e 94 175
e 94 176
e 94 191
e 94 199
e 95 100
e 95 105
e 95 119
e 95 137
e 95 139
e 95 143
e 95 147
e 95 161
e 95 168
e 95 183
e 95 184
e 95 185
e 95 188
e 95 192
e 96 99
e 96 100
e 96 120
e 96 136
e 96 142
e 96 144
e 96 149
e 96 152
e 96 170
e 96 172
e 96 173
e 96 174
e 96 179
e 96 193
e 96 195
e 96 196
e 96 200
e 97 106
e 97 115
e 97 116
e 97 117
e 97 119
e 97 121
e 97 130
e 97 135
e 97 137
e 97 139
e 97 141
e 97 147
e 97 158
e 97 160
e 97 164
e 97 165
e 97 174
e 97 182
e 97 185
e 97 187
e 97 195
e 98 103
e 98 109
e 98 110
e 98 114
e 98 118
e 98 120
e 98 121
e 98 125
e 98 133
e 98 139
e 98 150
e 98 151
e 98 156
e 98 164
e 98 177
e 98 182
e 98 188
e 98 190
e 98 196
e 98 197
e 98 200
e 99 104
e 99 107
e 99 109
e 99 114
e 99 123
e 99 126
e 99 128
e 99 136
e 99 146
e 99 147
e 99 151
e 99 152
e 99 158
e 99 163
e 99 167
e 99 176
e 99 179
e 99 182
e 99 190
e 99 193
e 100 105
e 100 108
e 100 119
e 100 122
e 100 125
e 100 134
e 100 136
e 100 137
e 100 140
e 100 141
e 100 142
e 100 146
e 100 151
e 100 164
e 100 170
e 100 192
e 100 195
e 100 198
e 101 106
e 101 114
e 101 116
e 101 132
e 101 133
e 101 137
e 101 148
e 101 152
e 101 159
e 101 160
e 101 170
e 101 182
e 101 185
e 101 186
e 101 193
e 101 194
e 101 197
e 102 106
e 102 108
e 102 113
e 102 118
e 102 123
e 102 126
e 102 128
e 102 137
e 102 142
e 102 146
e 102 154
e 102 158
e 102 160
e 102 162
e 102 165
e 102 172
e 102 183
e 102 189
e 102 191
e 103 105
e 103 108
e 103 110
e 103 112
e 103 115
e 103 118
e 103 120
e 103 132
e 103 134
e 103 136
e 103 137
e 103 145
e 103 150
e 103 151
e 103 155
e 103 166
e 103 174
e 103 176
e 103 179
e 103 181
e 103 197
e 104 108
e 104 129
e 104 131
e 104 135
e 104 143
e 104 152
e 104 158
e 104 170
e 104 175
e 104 178
e 104 185
e 104 198
e 105 113
e 105 128
e 105 130
e 105 133
e 105 138
e 105 143
e 105 145
e 105 146
e 105 151
e 105 164
e 105 168
e 105 173
e 105 190
e 105 192
e 105 196
e 106 107
e 106 112
e 106 113
e 106 114
e 106 123
e 106 124
e 106 130
e 106 134
e 106 145
e 106 152
e 106 159
e 106 166
e 106 167
e 106 172
e 106 179
e 106 180
e 106 183
e 106 188
e 106 191
e 107 108
e 107 109
e 107 111
e 107 130
e 107 133
e 107 136
e 107 140
e 107 143
e 107 144
e 107 149
e 107 150
e 107 153
e 107 155
e 107 156
e 107 164
e 107 169
e 107 170
e 107 193
e 107 194
e 107 197
e 108 110
e 108 116
e 108 122
e 108 132
e 108 137
e 108 138
e 108 148
e 108 151
e 108 154
e 108 156
e 108 167
e 108 170
e 108 177
e 108 178
e 108 183
e 108 187
e 108 192
e 108 194
e 108 195
e 108 196
e 108 197
e 108 198
e 108 200
e 109 110
e 109 113
e 109 124
e 109 138
e 109 140
e 109 141
e 109 147
e 109 151
e 109 160
e 109 162
e 109 166
e 109 168
e 109 172
e 109 173
e 109 177
e 109 178
e 109 181
e 109 182
e 109 185
e 109 194
e 109 200
e 110 117
e 110 119
e 110 127
e 110 135
e 110 143
e 110 149
e 110 155
e 110 156
e 110 165
e 110 167
e 110 169
e 110 171
e 110 175
e 110 187
e 110 189
e 110 191
e 110 193
e 110 194
e 111 112
e 111 116
e 111 121
e 111 124
e 111 132
e 111 137
e 111 143
e 111 144
e 111 145
e 111 148
e 111 154
e 111 159
e 111 161
e 111 163
e 111 164
e 111 170
e 111 176
e 111 182
e 111 183
e 111 184
e 111 188
e 111 192
e 111 194
e 111 196
e 111 199
e 112 116
e 112 120
e 112 132
e 112 139
e 112 142
e 112 144
e 112 148
e 112 150
e 112 153
e 112 155
e 112 156
e 112 167
e 112 172
e 112 174
e 112 175
e 112 180
e 112 187
e 112 189
e 112 190
e 112 192
e 112 193
e 112 194
e 112 198
e 113 114
e 113 116
e 113 119
e 113 139
e 113 140
e 113 144
e 113 147
e 113 167
e 113 177
e 113 180
e 113 187
e 113 189
e 113 191
e 113 192
e 113 193
e 113 195
e 113 198
e 114 125
e 114 136
e 114 148
e 114 149
e 114 150
e 114 151
e 114 161
e 114 162
e 114 165
e 114 169
e 114 172
e 114 176
e 114 180
e 114 186
e 114 190
e 115 126
e 115 132
e 115 139
e 115 149
e 115 150
e 115 151
e 115 159
e 115 177
e 115 186
e 115 188
e 115 190
e 115 191
e 115 193
e 115 194
e 116 124
e 116 130
e 116 134
e 116 135
e 116 136
e 116 139
e 116 141
e 116 143
e 116 145
e 116 148
e 116 161
e 116 166
e 116 169
e 116 170
e 116 171
e 116 172
e 116 174
e 116 176
e 116 180
e 116 185
e 116 191
e 116 198
e 116 199
e 117 120
e 117 122
e 117 125
e 117 131
e 117 132
e 117 133
e 117 134
e 117 140
e 117 147
e 117 149
e 117 151
e 117 161
e 117 166
e 117 195
e 117 198
e 118 122
e 118 127
e 118 131
e 118 136
e 118 144
e 118 148
e 118 159
e 118 162
e 118 166
e 118 172
e 118 174
e 118 178
e 118 180
e 118 183
e 118 194
e 118 199
e 119 120
e 119 121
e 119 122
e 119 126
e 119 128
e 119 129
e 119 131
e 119 135
e 119 136
e 119 140
e 119 141
e 119 152
e 119 156
e 119 160
e 119 166
e 119 180
e 119 185
e 119 186
e 119 196
e 119 197
e 119 199
e 120 139
e 120 141
e 120 142
e 120 146
e 120 165
e 120 169
e 120 170
e 120 175
e 120 178
e 120 180
e 120 181
e 120 189
e 120 193
e 120 197
e 120 198
e 121 127
e 121 135
e 121 149
e 121 152
e 121 155
e 121 164
e 121 175
e 121 178
e 121 180
e 121 189
e 121 191
e 122 133
e 122 139
e 122 140
e 122 148
e 122 149
e 122 155
e 122 173
e 122 179
e 122 191
e 122 194
e 122 197
e 122 198
e 122 200
e 123 124
e 123 137
e 123 142
e 123 150
e 123 152
e 123 154
e 123 156
e 123 163
e 123 165
e 123 168
e 123 174
e 123 175
e 123 182
e 123 195
e 124 125
e 124 127
e 124 129
e 124 138
e 124 144
e 124 164
e 124 167
e 124 174
e 124 183
e 124 188
e 124 192
e 124 193
e 124 199
e 124 200
e 125 132
e 125 133
e 125 134
e 125 137
e 125 142
e 125 146
e 125 149
e 125 154
e 125 161
e 125 168
e 125 169
e 125 180
e 125 182
e 125 183
e 125 184
e 125 185
e 125 191
e 125 199
e 126 137
e 126 141
e 126 156
e 126 159
e 126 175
e 126 179
e 126 185
e 126 188
e 126 189
e 126 190
e 126 194
e 126 197
e 126 198
e 127 142
e 127 144
e 127 148
e 127 149
e 127 150
e 127 161
e 127 167
e 127 168
e 127 174
e 127 185
e 127 192
e 127 196
e 127 198
e 127 200
e 128 134
e 128 137
e 128 148
e 128 153
e 128 159
e 128 160
e 128 162
e 128 168
e 128 170
e 128 177
e 128 179
e 128 183
e 128 185
e 128 186
e 128 187
e 128 191
e 128 200
e 129 138
e 129 140
e 129 143
e 129 150
e 129 151
e 129 153
e 129 158
e 129 161
e 129 162
e 129 177
e 129 180
e 129 183
e 129 188
e 129 194
e 129 200
e 130 136
e 130 137
e 130 140
e 130 142
e 130 143
e 130 144
e 130 147
e 130 150
e 130 157
e 130 159
e 130 162
e 130 166
e 130 178
e 130 181
e 130 187
e 130 189
e 131 132
e 131 133
e 131 146
e 131 152
e 131 154
e 131 164
e 131 167
e 131 171
e 131 185
e 131 188
e 131 190
e 131 194
e 131 198
e 131 199
e 132 134
e 132 137
e 132 138
e 132 139
e 132 151
e 132 152
e 132 154
e 132 159
e 132 165
e 132 175
e 132 182
e 132 184
e 132 187
e 132 191
e 132 197
e 133 140
e 133 142
e 133 150
e 133 157
e 133 165
e 133 169
e 133 178
e 133 182
e 133 187
e 133 193
e 133 197
e 133 199
e 134 146
e 134 151
e 134 154
e 134 156
e 134 160
e 134 169
e 134 173
e 134 183
e 134 189
e 134 192
e 134 196
e 134 198
e 135 136
e 135 141
e 135 142
e 135 150
e 135 151
e 135 163
e 135 166
e 135 169
e 135 180
e 135 183
e 135 197
e 136 139
e 136 147
e 136 151
e 136 157
e 136 165
e 136 168
e 136 170
e 136 171
e 136 176
e 136 188
e 136 189
e 136 192
e 136 195
e 136 199
e 137 138
e 137 156
e 137 178
e 137 179
e 137 181
e 137 200
e 138 144
e 138 159
e 138 165
e 138 173
e 138 174
e 138 181
e 138 182
e 138 184
e 138 199
e 139 140
e 139 143
e 139 150
e 139 151
e 139 171
e 139 174
e 139 176
e 139 188
e 139 191
e 139 193
e 139 198
e 140 142
e 140 146
e 140 152
e 140 153
e 140 160
e 140 162
e 140 163
e 140 175
e 140 179
e 140 196
e 141 147
e 141 148
e 141 150
e 141 153
e 141 157
e 141 170
e 141 174
e 141 175
e 141 177
e 141 182
e 142 144
e 142 148
e 142 149
e 142 154
e 142 157
e 142 162
e 142 164
e 142 165
e 142 167
e 142 169
e 142 173
e 142 176
e 142 178
e 142 179
e 142 180
e 142 181
e 142 182
e 142 187
e 142 190
e 142 192
e 142 194
e 142 195
e 142 197
e 142 200
e 143 149
e 143 150
e 143 164
e 143 174
e 143 176
e 143 180
e 143 181
e 143 184
e 143 196
e 143 197
e 144 150
e 144 151
e 144 157
e 144 159
e 144 165
e 144 170
e 144 176
e 144 182
e 144 188
e 144 193
e 145 148
e 145 155
e 145 157
e 145 160
e 145 164
e 145 172
e 145 182
e 145 188
e 146 148
e 146 150
e 146 157
e 146 164
e 146 174
e 146 179
e 146 180
e 146 189
e 146 194
e 147 160
e 147 162
e 147 169
e 147 171
e 147 172
e 147 175
e 147 178
e 147 179
e 147 183
e 147 185
e 147 193
e 147 194
e 148 150
e 148 153
e 148 155
e 148 161
e 148 167
e 148 171
e 148 177
e 148 182
e 148 184
e 148 190
e 148 192
e 148 195
e 148 196
e 148 197
e 148 200
e 149 153
e 149 159
e 149 165
e 149 166
e 149 169
e 149 171
e 149 181
e 149 192
e 149 198
e 149 199
e 149 200
e 150 158
e 150 159
e 150 160
e 150 165
e 150 166
e 150 168
e 150 170
e 150 174
e 150 178
e 150 185
e 150 193
e 150 197
e 150 198
e 151 154
e 151 159
e 151 160
e 151 161
e 151 164
e 151 166
e 151 172
e 151 173
e 151 176
e 151 180
e 151 181
e 151 187
e 151 190
e 152 160
e 152 166
e 152 167
e 152 171
e 152 172
e 152 176
e 152 189
e 152 195
e 152 199
e 153 159
e 153 166
e 153 167
e 153 173
e 153 174
e 153 177
e 153 179
e 153 182
e 153 186
e 153 187
e 153 192
e 153 193
e 153 195
e 153 199
e 153 200
e 154 162
e 154 163
e 154 166
e 154 168
e 154 177
e 154 180
e 154 187
e 154 194
e 154 196
e 154 200
e 155 156
e 155 160
e 155 171
e 155 193
e 155 194
e 156 164
e 156 171
e 156 179
e 156 180
e 156 186
e 156 189
e 156 190
e 156 193
e 157 166
e 157 168
e 157 169
e 157 172
e 157 178
e 157 182
e 157 194
e 157 196
e 157 198
e 158 160
e 158 166
e 158 189
e 158 193
e 158 195
e 158 197
e 159 160
e 159 162
e 159 163
e 159 166
e 159 171
e 159 178
e 159 184
e 159 187
e 159 190
e 159 192
e 159 195
e 159 196
e 159 198
e 160 164
e 160 165
e 160 167
e 160 171
e 160 173
e 160 174
e 160 178
e 160 181
e 160 192
e 160 197
e 161 167
e 161 175
e 161 180
e 161 183
e 161 187
e 161 189
e 161 196
e 162 175
e 162 177
e 162 184
e 162 189
e 162 190
e 162 193
e 163 165
e 163 168
e 163 174
e 163 176
e 163 177
e 163 178
e 163 179
e 163 183
e 163 187
e 163 192
e 163 193
e 164 166
e 164 173
e 164 178
e 164 179
e 164 185
e 164 187
e 164 199
e 165 173
e 165 179
e 165 182
e 165 183
e 165 188
e 165 190
e 165 192
e 166 170
e 166 173
e 166 179
e 166 180
e 166 181
e 166 185
e 166 196
e 166 200
e 167 168
e 167 178
e 167 185
e 167 186
e 167 190
e 167 194
e 167 197
e 167 199
e 168 172
e 168 173
e 168 175
e 168 178
e 168 195
e 168 198
e 168 199
e 169 173
e 169 175
e 169 176
e 169 180
e 169 181
e 169 184
e 169 188
e 169 190
e 169 193
e 169 194
e 170 184
e 170 200
e 171 172
e 171 174
e 171 178
e 171 180
e 171 182
e 171 183
e 171 188
e 171 197
e 172 179
e 172 186
e 172 196
e 173 177
e 173 185
e 173 196
e 174 178
e 174 185
e 174 189
e 174 197
e 175 179
e 175 190
e 175 193
e 175 195
e 175 196
e 176 177
e 176 178
e 176 179
e 176 181
e 176 184
e 177 178
e 177 181
e 177 183
e 177 186
e 177 197
e 178 179
e 178 185
e 178 186
e 178 198
e 178 199
e 179 180
e 179 183
e 179 184
e 179 189
e 179 191
e 179 193
e 180 182
e 180 183
e 180 185
e 180 187
e 180 189
e 180 190
e 180 196
e 180 197
e 180 198
e 180 200
e 181 195
e 182 188
e 182 190
e 182 199
e 183 184
e 183 199
e 184 191
e 184 192
e 184 195
e 184 196
e 184 197
e 184 200
e 185 189
e 186 192
e 186 193
e 186 197
e 186 199
e 187 188
e 187 189
e 187 192
e 188 198
e 189 194
e 190 199
e 190 200
e 191 196
e 192 193
e 192 195
e 192 197
e 193 196
e 193 197
e 196 199
e 199 200